*NODES
! id c1 c2 c3 x y
1      1  1  1       0.0000     0.0000
2      0  0  0       0.0000    15.0000
3      0  0  0       0.0000    30.0000
4      0  0  0       0.0000    45.0000
5      0  0  0       0.0000    60.0000
6      1  1  1      17.0000     0.0000
7      0  0  0      17.0000     4.3121
8      0  0  0      17.0000    19.3121
9      0  0  0      17.0000    34.3121
10     0  0  0      17.0000    49.3121
11     1  1  1      50.6000     0.0000
12     0  0  0      50.6000     4.3121
13     0  0  0      50.6000    13.1879
14     0  0  0      50.6000    28.1879
15     1  1  1      67.6000     0.0000
16     0  0  0      67.6000     8.7500
17     0  0  0      67.6000    17.5000
18     0  0  0     128.0000     0.0000
19     0  0  0       0.0000     3.7500
20     0  0  0       0.0000     7.5000
21     0  0  0       0.0000    11.2500
22     0  0  0       0.0000    18.7500
23     0  0  0       0.0000    22.5000
24     0  0  0       0.0000    26.2500
25     0  0  0       0.0000    33.7500
26     0  0  0       0.0000    37.5000
27     0  0  0       0.0000    41.2500
28     0  0  0       0.0000    48.7500
29     0  0  0       0.0000    52.5000
30     0  0  0       0.0000    56.2500
31     0  0  0      17.0000     8.0621
32     0  0  0      17.0000    11.8121
33     0  0  0      17.0000    15.5621
34     0  0  0      17.0000    23.0621
35     0  0  0      17.0000    26.8121
36     0  0  0      17.0000    30.5621
37     0  0  0      17.0000    38.0621
38     0  0  0      17.0000    41.8121
39     0  0  0      17.0000    45.5621
40     0  0  0      50.6000     8.7500
41     0  0  0      50.6000    16.9379
42     0  0  0      50.6000    20.6879
43     0  0  0      50.6000    24.4379
44     0  0  0      67.6000     4.3750
45     0  0  0      67.6000    13.1250
46     0  0  0       3.4000     0.8624
47     0  0  0       6.8000     1.7249
48     0  0  0      10.2000     2.5873
49     0  0  0      13.6000     3.4497
50     0  0  0       3.4000    15.8624
51     0  0  0       6.8000    16.7249
52     0  0  0      10.2000    17.5873
53     0  0  0      13.6000    18.4497
54     0  0  0       3.4000    30.8624
55     0  0  0       6.8000    31.7249
56     0  0  0      10.2000    32.5873
57     0  0  0      13.6000    33.4497
58     0  0  0       3.4000    45.8624
59     0  0  0       6.8000    46.7249
60     0  0  0      10.2000    47.5873
61     0  0  0      13.6000    48.4497
62     0  0  0       2.8333    13.2187
63     0  0  0       5.6667    11.4374
64     0  0  0       8.5000     9.6561
65     0  0  0      11.3333     7.8748
66     0  0  0      14.1667     6.0934
67     0  0  0       2.8333    28.2187
68     0  0  0       5.6667    26.4374
69     0  0  0       8.5000    24.6561
70     0  0  0      11.3333    22.8748
71     0  0  0      14.1667    21.0934
72     0  0  0       2.8333    43.2187
73     0  0  0       5.6667    41.4374
74     0  0  0       8.5000    39.6561
75     0  0  0      11.3333    37.8748
76     0  0  0      14.1667    36.0934
77     0  0  0      54.0000     3.4497
78     0  0  0      57.4000     2.5873
79     0  0  0      60.8000     1.7249
80     0  0  0      64.2000     0.8624
81     0  0  0      54.0000    12.3003
82     0  0  0      57.4000    11.4127
83     0  0  0      60.8000    10.5251
84     0  0  0      64.2000     9.6376
85     0  0  0      54.0000    14.0503
86     0  0  0      57.4000    14.9127
87     0  0  0      60.8000    15.7751
88     0  0  0      64.2000    16.6376
89     0  0  0      54.0000     5.1997
90     0  0  0      57.4000     6.0873
91     0  0  0      60.8000     6.9749
92     0  0  0      64.2000     7.8624
93     0  0  0       5.6667    56.4374
94     0  0  0      11.3333    52.8748
95     0  0  0      22.6000    45.7914
96     0  0  0      28.2000    42.2707
97     0  0  0      33.8000    38.7500
98     0  0  0      39.4000    35.2293
99     0  0  0      45.0000    31.7086
100    0  0  0      56.2667    24.6252
101    0  0  0      61.9333    21.0626
102    0  0  0      73.6918    13.8900
103    0  0  0      79.9996    10.6722
104    0  0  0      86.4982     7.8595
105    0  0  0      93.1615     5.4630
106    0  0  0      99.9629     3.4924
107    0  0  0     106.8752     1.9555
108    0  0  0     113.8709     0.8586
109    0  0  0     120.9219     0.2058
*ENDNODES

*BEAMS
! id node1 node2 prop_id
1      1      19     1     
2      19     20     1     
3      20     21     1     
4      21     2      1     
5      2      22     1     
6      22     23     1     
7      23     24     1     
8      24     3      1     
9      3      25     1     
10     25     26     1     
11     26     27     1     
12     27     4      1     
13     4      28     1     
14     28     29     1     
15     29     30     1     
16     30     5      1     
17     6      7      1     
18     7      31     1     
19     31     32     1     
20     32     33     1     
21     33     8      1     
22     8      34     1     
23     34     35     1     
24     35     36     1     
25     36     9      1     
26     9      37     1     
27     37     38     1     
28     38     39     1     
29     39     10     1     
30     11     12     1     
31     12     40     1     
32     40     13     1     
33     13     41     1     
34     41     42     1     
35     42     43     1     
36     43     14     1     
37     15     44     1     
38     44     16     1     
39     16     45     1     
40     45     17     1     
41     1      46     2     
42     46     47     2     
43     47     48     2     
44     48     49     2     
45     49     7      2     
46     2      50     2     
47     50     51     2     
48     51     52     2     
49     52     53     2     
50     53     8      2     
51     3      54     2     
52     54     55     2     
53     55     56     2     
54     56     57     2     
55     57     9      2     
56     4      58     2     
57     58     59     2     
58     59     60     2     
59     60     61     2     
60     61     10     2     
61     2      62     2     
62     62     63     2     
63     63     64     2     
64     64     65     2     
65     65     66     2     
66     66     7      2     
67     3      67     2     
68     67     68     2     
69     68     69     2     
70     69     70     2     
71     70     71     2     
72     71     8      2     
73     4      72     2     
74     72     73     2     
75     73     74     2     
76     74     75     2     
77     75     76     2     
78     76     9      2     
79     12     77     2     
80     77     78     2     
81     78     79     2     
82     79     80     2     
83     80     15     2     
84     13     81     2     
85     81     82     2     
86     82     83     2     
87     83     84     2     
88     84     16     2     
89     13     85     2     
90     85     86     2     
91     86     87     2     
92     87     88     2     
93     88     17     2     
94     12     89     2     
95     89     90     2     
96     90     91     2     
97     91     92     2     
98     92     16     2     
99     5      93     3     
100    93     94     3     
101    94     10     3     
102    10     95     3     
103    95     96     3     
104    96     97     3     
105    97     98     3     
106    98     99     3     
107    99     14     3     
108    14     100    3     
109    100    101    3     
110    101    17     3     
111    17     102    3     
112    102    103    3     
113    103    104    3     
114    104    105    3     
115    105    106    3     
116    106    107    3     
117    107    108    3     
118    108    109    3     
119    109    18     3     
*ENDBEAMS

*PROPERTIES
! id m EA EJ
1      122.0000   3.2100e+09   2.0000e+08
2       80.0000   1.7400e+09   4.8000e+07
3      400.0000   2.5000e+09   4.0000e+09
*ENDPROPERTIES
